min: c;

c = 3.59937596818944 * u5_t4_h2 + 3.59937596818944 * u5_t7_h2 + 3.57486445087889 * u5_t4_h3 + 3.57486445087889 * u5_t7_h3 + 3.01334083524423 * u5_t1_h4 + 3.01334083524423 * u5_t3_h4 + 3.01334083524423 * u5_t4_h4 + 3.01334083524423 * u5_t7_h4 + 3.84325149399339 * u5_t1_h5 + 3.84325149399339 * u5_t3_h5 + 3.84325149399339 * u5_t4_h5 + 3.84325149399339 * u5_t7_h5 + 4.09028898550256 * u5_t1_h6 + 4.09028898550256 * u5_t3_h6 + 4.09028898550256 * u5_t4_h6 + 4.09028898550256 * u5_t6_h6 + 4.09028898550256 * u5_t7_h6 + 4.57705706754142 * u5_t1_h7 + 4.57705706754142 * u5_t3_h7 + 4.57705706754142 * u5_t4_h7 + 4.57705706754142 * u5_t6_h7 + 5.05826384220985 * u5_t1_h8 + 5.05826384220985 * u5_t3_h8 + 5.05826384220985 * u5_t4_h8 + 5.05826384220985 * u5_t6_h8 + 5.21863769073631 * u5_t1_h9 + 5.21863769073631 * u5_t3_h9 + 5.21863769073631 * u5_t4_h9 + 5.21863769073631 * u5_t6_h9 + 5.58366580571975 * u5_t1_h10 + 5.58366580571975 * u5_t3_h10 + 5.58366580571975 * u5_t4_h10 + 5.58366580571975 * u5_t6_h10 + 3.62820436404394 * u5_t1_h11 + 3.62820436404394 * u5_t3_h11 + 3.62820436404394 * u5_t4_h11 + 3.62820436404394 * u5_t6_h11 + 5.862280133962 * u5_t1_h12 + 5.862280133962 * u5_t3_h12 + 5.862280133962 * u5_t4_h12 + 5.862280133962 * u5_t6_h12 + 4.17694879903379 * u5_t1_h13 + 4.17694879903379 * u5_t3_h13 + 4.17694879903379 * u5_t4_h13 + 4.17694879903379 * u5_t6_h13 + 4.17694879903379 * u5_t8_h13 + 5.23086789175333 * u5_t1_h14 + 5.23086789175333 * u5_t3_h14 + 5.23086789175333 * u5_t4_h14 + 5.23086789175333 * u5_t6_h14 + 5.23086789175333 * u5_t8_h14 + 6.33690924030496 * u5_t1_h15 + 6.33690924030496 * u5_t3_h15 + 6.33690924030496 * u5_t4_h15 + 6.33690924030496 * u5_t6_h15 + 6.33690924030496 * u5_t8_h15 + 6.33690924030496 * u5_t9_h15 + 5.46234771391532 * u5_t1_h16 + 5.46234771391532 * u5_t3_h16 + 5.46234771391532 * u5_t4_h16 + 5.46234771391532 * u5_t5_h16 + 5.46234771391532 * u5_t6_h16 + 5.46234771391532 * u5_t8_h16 + 5.46234771391532 * u5_t9_h16 + 6.75264610786601 * u5_t1_h17 + 6.75264610786601 * u5_t5_h17 + 6.75264610786601 * u5_t6_h17 + 6.75264610786601 * u5_t8_h17 + 6.75264610786601 * u5_t9_h17 + 6.75264610786601 * u5_t10_h17 + 6.27548944937475 * u5_t1_h18 + 6.27548944937475 * u5_t2_h18 + 6.27548944937475 * u5_t5_h18 + 6.27548944937475 * u5_t6_h18 + 6.27548944937475 * u5_t9_h18 + 6.27548944937475 * u5_t10_h18 + 5.93533432707165 * u5_t1_h19 + 5.93533432707165 * u5_t2_h19 + 5.93533432707165 * u5_t5_h19 + 5.93533432707165 * u5_t9_h19 + 5.93533432707165 * u5_t10_h19 + 6.0044169087517 * u5_t1_h20 + 6.0044169087517 * u5_t2_h20 + 6.0044169087517 * u5_t5_h20 + 6.0044169087517 * u5_t9_h20 + 6.0044169087517 * u5_t10_h20 + 5.75106209641017 * u5_t2_h21 + 5.75106209641017 * u5_t5_h21 + 5.75106209641017 * u5_t9_h21 + 5.75106209641017 * u5_t10_h21 + 5.17056017734889 * u5_t2_h22 + 5.17056017734889 * u5_t5_h22 + 5.17056017734889 * u5_t9_h22 + 5.17056017734889 * u5_t10_h22 + 5.44473336209933 * u5_t5_h23 + 5.44473336209933 * u5_t9_h23 + 5.44473336209933 * u5_t10_h23;
0 <= u5_t1_h4 <= 1;
0 <= u5_t1_h5 <= 1;
0 <= u5_t1_h6 <= 1;
0 <= u5_t1_h7 <= 1;
0 <= u5_t1_h8 <= 1;
0 <= u5_t1_h9 <= 1;
0 <= u5_t1_h10 <= 1;
0 <= u5_t1_h11 <= 1;
0 <= u5_t1_h12 <= 1;
0 <= u5_t1_h13 <= 1;
0 <= u5_t1_h14 <= 1;
0 <= u5_t1_h15 <= 1;
0 <= u5_t1_h16 <= 1;
0 <= u5_t1_h17 <= 1;
0 <= u5_t1_h18 <= 1;
0 <= u5_t1_h19 <= 1;
0 <= u5_t1_h20 <= 1;
u5_t1_h4 + u5_t1_h5 + u5_t1_h6 + u5_t1_h7 + u5_t1_h8 + u5_t1_h9 + u5_t1_h10 + u5_t1_h11 + u5_t1_h12 + u5_t1_h13 + u5_t1_h14 + u5_t1_h15 + u5_t1_h16 + u5_t1_h17 + u5_t1_h18 + u5_t1_h19 + u5_t1_h20 = 1;
0 <= u5_t2_h18 <= 1;
0 <= u5_t2_h19 <= 1;
0 <= u5_t2_h20 <= 1;
0 <= u5_t2_h21 <= 1;
0 <= u5_t2_h22 <= 1;
u5_t2_h18 + u5_t2_h19 + u5_t2_h20 + u5_t2_h21 + u5_t2_h22 = 3;
0 <= u5_t3_h4 <= 1;
0 <= u5_t3_h5 <= 1;
0 <= u5_t3_h6 <= 1;
0 <= u5_t3_h7 <= 1;
0 <= u5_t3_h8 <= 1;
0 <= u5_t3_h9 <= 1;
0 <= u5_t3_h10 <= 1;
0 <= u5_t3_h11 <= 1;
0 <= u5_t3_h12 <= 1;
0 <= u5_t3_h13 <= 1;
0 <= u5_t3_h14 <= 1;
0 <= u5_t3_h15 <= 1;
0 <= u5_t3_h16 <= 1;
u5_t3_h4 + u5_t3_h5 + u5_t3_h6 + u5_t3_h7 + u5_t3_h8 + u5_t3_h9 + u5_t3_h10 + u5_t3_h11 + u5_t3_h12 + u5_t3_h13 + u5_t3_h14 + u5_t3_h15 + u5_t3_h16 = 1;
0 <= u5_t4_h2 <= 1;
0 <= u5_t4_h3 <= 1;
0 <= u5_t4_h4 <= 1;
0 <= u5_t4_h5 <= 1;
0 <= u5_t4_h6 <= 1;
0 <= u5_t4_h7 <= 1;
0 <= u5_t4_h8 <= 1;
0 <= u5_t4_h9 <= 1;
0 <= u5_t4_h10 <= 1;
0 <= u5_t4_h11 <= 1;
0 <= u5_t4_h12 <= 1;
0 <= u5_t4_h13 <= 1;
0 <= u5_t4_h14 <= 1;
0 <= u5_t4_h15 <= 1;
0 <= u5_t4_h16 <= 1;
u5_t4_h2 + u5_t4_h3 + u5_t4_h4 + u5_t4_h5 + u5_t4_h6 + u5_t4_h7 + u5_t4_h8 + u5_t4_h9 + u5_t4_h10 + u5_t4_h11 + u5_t4_h12 + u5_t4_h13 + u5_t4_h14 + u5_t4_h15 + u5_t4_h16 = 3;
0 <= u5_t5_h16 <= 1;
0 <= u5_t5_h17 <= 1;
0 <= u5_t5_h18 <= 1;
0 <= u5_t5_h19 <= 1;
0 <= u5_t5_h20 <= 1;
0 <= u5_t5_h21 <= 1;
0 <= u5_t5_h22 <= 1;
0 <= u5_t5_h23 <= 1;
u5_t5_h16 + u5_t5_h17 + u5_t5_h18 + u5_t5_h19 + u5_t5_h20 + u5_t5_h21 + u5_t5_h22 + u5_t5_h23 = 2;
0 <= u5_t6_h6 <= 1;
0 <= u5_t6_h7 <= 1;
0 <= u5_t6_h8 <= 1;
0 <= u5_t6_h9 <= 1;
0 <= u5_t6_h10 <= 1;
0 <= u5_t6_h11 <= 1;
0 <= u5_t6_h12 <= 1;
0 <= u5_t6_h13 <= 1;
0 <= u5_t6_h14 <= 1;
0 <= u5_t6_h15 <= 1;
0 <= u5_t6_h16 <= 1;
0 <= u5_t6_h17 <= 1;
0 <= u5_t6_h18 <= 1;
u5_t6_h6 + u5_t6_h7 + u5_t6_h8 + u5_t6_h9 + u5_t6_h10 + u5_t6_h11 + u5_t6_h12 + u5_t6_h13 + u5_t6_h14 + u5_t6_h15 + u5_t6_h16 + u5_t6_h17 + u5_t6_h18 = 2;
0 <= u5_t7_h2 <= 1;
0 <= u5_t7_h3 <= 1;
0 <= u5_t7_h4 <= 1;
0 <= u5_t7_h5 <= 1;
0 <= u5_t7_h6 <= 1;
u5_t7_h2 + u5_t7_h3 + u5_t7_h4 + u5_t7_h5 + u5_t7_h6 = 1;
0 <= u5_t8_h13 <= 1;
0 <= u5_t8_h14 <= 1;
0 <= u5_t8_h15 <= 1;
0 <= u5_t8_h16 <= 1;
0 <= u5_t8_h17 <= 1;
u5_t8_h13 + u5_t8_h14 + u5_t8_h15 + u5_t8_h16 + u5_t8_h17 = 3;
0 <= u5_t9_h15 <= 1;
0 <= u5_t9_h16 <= 1;
0 <= u5_t9_h17 <= 1;
0 <= u5_t9_h18 <= 1;
0 <= u5_t9_h19 <= 1;
0 <= u5_t9_h20 <= 1;
0 <= u5_t9_h21 <= 1;
0 <= u5_t9_h22 <= 1;
0 <= u5_t9_h23 <= 1;
u5_t9_h15 + u5_t9_h16 + u5_t9_h17 + u5_t9_h18 + u5_t9_h19 + u5_t9_h20 + u5_t9_h21 + u5_t9_h22 + u5_t9_h23 = 1;
0 <= u5_t10_h17 <= 1;
0 <= u5_t10_h18 <= 1;
0 <= u5_t10_h19 <= 1;
0 <= u5_t10_h20 <= 1;
0 <= u5_t10_h21 <= 1;
0 <= u5_t10_h22 <= 1;
0 <= u5_t10_h23 <= 1;
u5_t10_h17 + u5_t10_h18 + u5_t10_h19 + u5_t10_h20 + u5_t10_h21 + u5_t10_h22 + u5_t10_h23 = 1;
